(set-option :produce-models true)
(set-logic QF_UF)
(declare-fun p68() Bool)
(declare-fun p11() Bool)
(declare-fun p63() Bool)
(declare-fun p80() Bool)
(declare-fun p88() Bool)
(declare-fun p95() Bool)
(declare-fun p29() Bool)
(declare-fun p54() Bool)
(declare-fun p5() Bool)
(declare-fun p2() Bool)
(declare-fun p44() Bool)
(declare-fun p3() Bool)
(declare-fun p74() Bool)
(declare-fun p50() Bool)
(declare-fun p4() Bool)
(declare-fun p46() Bool)
(declare-fun p24() Bool)
(declare-fun p0() Bool)
(declare-fun p87() Bool)
(declare-fun p41() Bool)
(declare-fun p31() Bool)
(declare-fun p62() Bool)
(declare-fun p53() Bool)
(declare-fun p25() Bool)
(declare-fun p20() Bool)
(declare-fun p64() Bool)
(declare-fun p76() Bool)
(declare-fun p6() Bool)
(declare-fun p78() Bool)
(declare-fun p58() Bool)
(declare-fun p9() Bool)
(declare-fun p8() Bool)
(declare-fun p79() Bool)
(declare-fun p99() Bool)
(declare-fun p49() Bool)
(declare-fun p71() Bool)
(declare-fun p89() Bool)
(declare-fun p73() Bool)
(declare-fun p85() Bool)
(declare-fun p59() Bool)
(declare-fun p34() Bool)
(declare-fun p90() Bool)
(declare-fun p21() Bool)
(declare-fun p19() Bool)
(declare-fun p30() Bool)
(declare-fun p35() Bool)
(declare-fun p69() Bool)
(declare-fun p77() Bool)
(declare-fun p93() Bool)
(declare-fun p7() Bool)
(declare-fun p27() Bool)
(declare-fun p75() Bool)
(declare-fun p56() Bool)
(declare-fun p82() Bool)
(declare-fun p60() Bool)
(declare-fun p47() Bool)
(declare-fun p26() Bool)
(declare-fun p36() Bool)
(declare-fun p33() Bool)
(declare-fun p72() Bool)
(declare-fun p38() Bool)
(declare-fun p23() Bool)
(declare-fun p16() Bool)
(declare-fun p32() Bool)
(declare-fun p12() Bool)
(declare-fun p98() Bool)
(declare-fun p92() Bool)
(declare-fun p13() Bool)
(declare-fun p61() Bool)
(declare-fun p84() Bool)
(declare-fun p10() Bool)
(declare-fun p39() Bool)
(declare-fun p37() Bool)
(declare-fun p15() Bool)
(declare-fun p14() Bool)
(declare-fun p45() Bool)
(declare-fun p91() Bool)
(declare-fun p48() Bool)
(declare-fun p86() Bool)
(declare-fun p57() Bool)
(declare-fun p66() Bool)
(declare-fun p43() Bool)
(declare-fun p70() Bool)
(declare-fun p1() Bool)
(declare-fun p22() Bool)
(declare-fun p81() Bool)
(declare-fun p67() Bool)
(declare-fun p51() Bool)
(declare-fun p55() Bool)
(declare-fun p96() Bool)
(declare-fun p83() Bool)
(declare-fun p42() Bool)
(declare-fun p65() Bool)
(declare-fun p17() Bool)
(declare-fun p97() Bool)
(declare-fun p40() Bool)
(declare-fun p52() Bool)
(declare-fun p28() Bool)
(declare-fun p94() Bool)
(declare-fun p18() Bool)
(assert
(and (or (not p68) (not p11) (not p63)) (or p80 p88 (not p95)) (or (not p29) p54 p5) (or p11 p2 p44) (or (not p3) (not p74) (not p50)) (or (not p54) (not p4) p46) (or (not p24) p0 p87) (or (not p41) (not p31) p62) (or (not p88) (not p54) p53) (or p2 p25 (not p4)) (or p20 (not p64) (not p76)) (or (not p6) p78 p50) (or p58 (not p9) p8) (or p79 p99 p41) (or p49 p87 p9) (or (not p71) p89 (not p73)) (or (not p85) (not p44) p59) (or (not p34) (not p90) (not p21)) (or p71 p19 (not p53)) (or (not p30) (not p9) p90) (or (not p35) (not p69) p77) (or (not p93) p7 p35) (or p50 (not p27) (not p75)) (or p56 p19 (not p74)) (or (not p27) (not p9) p82) (or (not p49) p60 (not p47)) (or p30 p4 p26) (or p36 p76 (not p50)) (or p64 p49 p56) (or (not p33) (not p50) (not p49)) (or (not p72) (not p79) (not p38)) (or p24 p88 p23) (or p9 (not p16) (not p76)) (or (not p25) p32 (not p63)) (or (not p3) (not p74) (not p12)) (or (not p98) (not p59) p38) (or p90 (not p75) p27) (or (not p92) (not p82) p25) (or (not p60) (not p13) (not p38)) (or p25 p27 p61) (or p19 p84 p4) (or (not p26) (not p71) (not p12)) (or (not p60) (not p10) p38) (or (not p39) p80 (not p49)) (or (not p21) p78 p32) (or (not p39) p16 p37) (or (not p36) p10 (not p87)) (or (not p24) p9 (not p15)) (or (not p14) (not p45) p44) (or (not p37) p91 p48) (or (not p16) p75 (not p75)) (or p88 (not p88) (not p31)) (or (not p87) (not p7) (not p59)) (or (not p86) (not p57) (not p73)) (or (not p66) p43 p12) (or (not p82) (not p31) p71) (or (not p5) p47 (not p41)) (or (not p60) p13 (not p91)) (or (not p50) p70 (not p50)) (or p85 p43 p61) (or (not p32) (not p6) p1) (or p98 p69 (not p30)) (or p74 p7 (not p22)) (or (not p84) (not p89) (not p44)) (or (not p32) (not p81) (not p67)) (or (not p51) p58 (not p63)) (or (not p67) p13 p0) (or (not p55) p75 (not p29)) (or (not p62) (not p84) (not p38)) (or p15 (not p79) p22) (or p7 (not p74) p7) (or p56 (not p32) p91) (or (not p56) (not p74) p96) (or p47 (not p26) (not p83)) (or (not p95) p95 p6) (or (not p48) p57 (not p71)) (or (not p69) p74 p45) (or (not p47) p13 (not p22)) (or p45 (not p95) p0) (or p79 p42 p66) (or p59 (not p30) p41) (or p7 (not p77) (not p53)) (or p79 (not p45) p86) (or (not p74) p45 p70) (or p74 p19 p26) (or (not p57) (not p41) p36) (or (not p31) p80 p41) (or p49 (not p49) p80) (or (not p90) (not p36) (not p98)) (or p30 p65 (not p89)) (or (not p82) (not p1) p34) (or (not p61) p10 p74) (or (not p39) p4 (not p17)) (or p47 (not p97) p38) (or p24 (not p40) (not p50)) (or p33 (not p93) (not p67)) (or p45 (not p4) p61) (or (not p4) p82 p88) (or p23 p17 (not p86)) (or (not p9) (not p36) (not p92)) (or p80 p15 (not p11)) (or (not p73) (not p57) p65) (or p44 p83 (not p92)) (or p51 (not p95) p62) (or p37 (not p96) p34) (or p90 (not p35) (not p6)) (or (not p91) (not p71) (not p81)) (or (not p1) (not p86) (not p57)) (or (not p58) (not p22) p34) (or (not p12) p56 (not p11)) (or p99 (not p22) p54) (or p20 (not p7) p14) (or (not p20) (not p70) p47) (or p97 p75 p41) (or (not p26) p49 (not p95)) (or (not p68) (not p92) (not p96)) (or (not p93) p67 (not p64)) (or (not p21) (not p51) p99) (or (not p20) p10 (not p55)) (or p22 p36 p89) (or p98 p95 p20) (or (not p71) p37 p81) (or p78 p9 p46) (or p63 p23 p12) (or p60 (not p85) p52) (or (not p25) p75 (not p24)) (or p78 p41 (not p58)) (or (not p50) p31 p38) (or p57 (not p48) p42) (or (not p15) p57 p86) (or p37 p73 (not p68)) (or (not p82) p16 (not p95)) (or (not p3) p54 p14) (or (not p3) p62 (not p79)) (or p80 p91 (not p79)) (or p9 (not p80) p43) (or p87 (not p43) (not p62)) (or p17 p73 p33) (or p2 (not p34) p62) (or p72 p74 (not p39)) (or p35 p85 (not p41)) (or p21 (not p26) p30) (or (not p43) (not p88) (not p87)) (or (not p44) p17 (not p50)) (or p28 p53 p57) (or (not p56) (not p33) p96) (or p2 p95 p37) (or p58 p33 (not p28)) (or (not p68) p41 (not p27)) (or (not p71) (not p67) (not p50)) (or (not p73) p47 (not p94)) (or (not p88) (not p98) (not p62)) (or p62 (not p20) p28) (or (not p4) (not p65) (not p38)) (or p14 p2 (not p39)) (or p57 (not p68) p39) (or (not p36) p15 (not p90)) (or p15 p77 p78) (or (not p70) p59 p25) (or p51 p24 p16) (or p6 p33 p65) (or p56 p82 (not p97)) (or p54 (not p13) p97) (or (not p52) (not p25) p63) (or p0 p82 p11) (or (not p84) p83 p14) (or p26 (not p74) (not p97)) (or p38 (not p67) (not p11)) (or (not p66) (not p86) (not p63)) (or (not p89) (not p9) (not p24)) (or (not p50) (not p52) p41) (or p24 (not p24) (not p16)) (or p80 (not p21) p53) (or (not p24) (not p99) (not p74)) (or (not p15) (not p81) p53) (or p46 (not p80) (not p88)) (or p17 p51 (not p64)) (or p38 (not p60) (not p97)) (or p55 (not p68) (not p48)) (or (not p4) p5 p39) (or (not p74) p13 p37) (or (not p47) p85 p37) (or p98 (not p40) p82) (or p56 (not p24) p11) (or p60 p36 p97) (or p31 (not p8) p29) (or p41 p24 p72) (or (not p78) p15 p88) (or (not p11) (not p95) (not p67)) (or p10 (not p84) (not p88)) (or p90 p50 p88) (or (not p37) p68 (not p60)) (or (not p5) (not p88) (not p74)) (or p19 p94 p44) (or p61 p28 (not p33)) (or (not p20) p74 p19) (or p34 (not p98) p74) (or p89 p48 (not p8)) (or p38 p41 p69) (or (not p51) (not p51) p28) (or (not p86) p97 (not p93)) (or (not p47) p26 (not p46)) (or (not p31) p73 (not p50)) (or (not p41) (not p26) (not p96)) (or p30 p88 (not p74)) (or p34 (not p47) (not p56)) (or (not p73) (not p8) (not p44)) (or (not p39) (not p0) (not p34)) (or p2 (not p45) p79) (or (not p1) p71 p5) (or p41 p86 p36) (or (not p34) (not p38) p39) (or (not p76) p45 (not p28)) (or (not p36) p96 (not p49)) (or (not p4) (not p80) p66) (or p29 (not p65) p51) (or (not p29) p70 (not p77)) (or p86 (not p82) (not p41)) (or p68 p71 (not p41)) (or p45 p75 p67) (or p15 (not p64) p99) (or p54 (not p12) p48) (or (not p73) p65 p60) (or p8 p78 p68) (or (not p99) (not p11) (not p83)) (or p97 p87 (not p44)) (or p52 (not p72) (not p77)) (or p10 p31 p92) (or p38 p24 (not p91)) (or (not p58) p10 (not p84)) (or p84 (not p24) p65) (or p23 (not p9) p47) (or (not p84) p89 (not p94)) (or (not p78) (not p20) p88) (or (not p91) p17 (not p46)) (or (not p10) p63 p3) (or (not p21) (not p3) (not p80)) (or (not p11) (not p42) (not p82)) (or (not p1) p34 (not p82)) (or p54 p88 p98) (or (not p27) p82 (not p75)) (or (not p64) p15 p48) (or (not p27) p18 p86) (or p27 (not p26) (not p63)) (or (not p77) (not p95) p98) (or p79 p14 (not p72)) (or (not p34) (not p60) p32) (or p55 p14 p20) (or (not p6) p86 (not p84)) (or p56 (not p27) p67) (or p27 (not p31) (not p2)) (or (not p84) (not p60) (not p79)) (or (not p27) (not p12) (not p38)) (or p74 (not p69) (not p63)) (or (not p47) p32 (not p18)) (or p98 (not p71) (not p62)) (or (not p10) (not p52) (not p61)) (or p40 p72 (not p92)) (or p37 (not p20) (not p39)) (or p47 (not p93) p37) (or (not p15) (not p34) (not p2)) (or p94 p66 (not p94)) (or (not p24) (not p34) p39) (or (not p7) (not p68) (not p40)) (or (not p26) p84 (not p39)) (or (not p66) (not p76) (not p97)) (or p96 (not p69) p0) (or p92 p80 (not p18)) (or (not p64) p14 (not p87)) (or (not p94) p12 (not p61)) (or (not p21) p42 (not p21)) (or p63 (not p72) (not p98)) (or (not p48) p2 p8) (or p7 (not p7) p41) (or p30 (not p48) p61) (or (not p89) (not p56) (not p53)) (or (not p5) (not p36) (not p85)) (or p84 p45 p80) (or (not p60) p75 p74) (or (not p79) (not p39) p44) (or p25 p68 p99) (or p65 (not p64) p3) (or (not p18) p97 (not p84)) (or p5 (not p71) (not p28)) (or (not p33) p5 p76) (or (not p51) (not p23) (not p98)) (or (not p73) (not p88) (not p89)) (or (not p29) (not p42) (not p47)) (or p24 (not p63) (not p42)) (or p22 p39 p85) (or p65 (not p8) (not p78)) (or (not p0) p86 p67) (or p54 (not p1) p23) (or (not p82) (not p83) p58) (or (not p27) (not p87) p0) (or p2 (not p13) p6) (or p85 p89 p98) (or (not p39) p6 (not p42)) (or p59 p99 (not p32)) (or (not p84) p47 (not p21)) (or p72 (not p24) (not p59)) (or p68 p69 (not p6)) (or p79 (not p89) (not p70)) (or (not p35) (not p14) p63) (or (not p69) p26 (not p49)) (or (not p46) p80 p29) (or p82 p61 (not p33)) (or (not p62) p72 p5) (or (not p98) (not p44) (not p12)) (or (not p55) p23 (not p84)) (or p86 p94 p85) (or p0 p4 p84) (or (not p43) p49 p97) (or (not p49) p37 (not p61)) (or (not p32) (not p3) (not p82)) (or (not p90) p10 p38) (or p5 (not p88) p73) (or (not p45) p61 (not p24)) (or (not p98) p9 (not p40)) (or (not p73) p24 (not p15)) (or (not p47) p46 p34) (or (not p78) (not p76) (not p31)) (or (not p40) p28 (not p59)) (or (not p72) p0 p20) (or (not p59) p5 (not p90)) (or p82 (not p36) p77) (or (not p88) p40 p44) (or (not p52) (not p12) p95) (or (not p14) p33 p51) (or (not p29) (not p68) (not p55)) (or p4 (not p40) p99) (or (not p36) (not p26) p99) (or (not p96) p31 (not p93)) (or (not p88) (not p73) (not p48)) (or p90 p43 p93) (or (not p25) p92 p81) (or p58 p65 p18) (or (not p78) (not p56) (not p24)) (or p55 (not p27) p79) (or (not p16) p30 p75) (or (not p1) (not p23) (not p7)) (or (not p91) (not p38) (not p84)) (or p65 p80 (not p92)) (or (not p23) p4 (not p88)) (or (not p13) (not p72) p79) (or p32 (not p29) (not p28)) (or p67 (not p62) p20) (or (not p29) (not p95) p98) (or (not p88) p69 p97) (or p27 p81 p57) (or (not p54) p26 (not p30)) (or p85 p69 p62) (or (not p57) (not p55) (not p44)) (or p40 p55 p21) (or (not p74) (not p15) p28) (or (not p46) (not p46) (not p23)) (or (not p25) p86 (not p64)) (or p54 p1 p2) (or p4 p5 (not p14)) (or (not p78) (not p0) (not p70)) (or (not p55) (not p54) p61) (or (not p33) p64 p84) (or (not p75) (not p80) (not p64)) (or (not p53) p11 (not p4)) (or (not p97) (not p49) p11) (or p79 p27 (not p71)) (or (not p50) p50 (not p14)) (or (not p26) p71 p36) (or (not p31) p71 p8) (or (not p57) (not p34) (not p37)) (or p52 (not p44) p37) (or (not p5) p87 p16) (or (not p17) (not p4) (not p89)) (or (not p80) p15 p28) (or p12 p75 p33) (or (not p47) p91 (not p57)) (or p33 p77 p85) (or (not p83) p88 (not p73)) (or (not p9) p98 (not p39)) (or p31 p37 (not p32)) (or p98 (not p79) (not p80)) (or p74 (not p97) (not p9)) (or (not p18) (not p68) (not p72)) (or (not p61) p81 (not p12)) (or p28 (not p70) p13) (or p20 (not p97) p4) (or (not p66) p91 (not p4)) (or (not p62) p96 (not p81)) (or p8 p95 p75) (or (not p93) p38 (not p36)) (or p65 (not p9) (not p56)) (or p95 (not p42) p90) (or p30 (not p10) (not p97)) (or p89 p94 (not p40)) (or p83 (not p12) (not p79)) (or p91 (not p92) p44) (or p70 (not p79) p58) (or p45 p9 (not p83)) (or p76 p53 p4) (or p29 (not p46) p0) (or (not p8) p60 (not p55)) (or (not p9) p31 p17) (or (not p46) p46 (not p78)) (or (not p74) (not p45) (not p95)) (or (not p27) p13 (not p24)) (or (not p72) (not p50) (not p60)) (or p99 p7 (not p66)) (or (not p25) p51 (not p25)) (or (not p1) p53 p62) (or (not p93) p63 (not p63)) (or p11 p20 (not p65)) (or p24 p16 p83) (or p78 (not p64) p87) (or (not p66) (not p75) p4) (or p68 (not p74) (not p86)) (or (not p94) (not p27) (not p89)) (or p46 (not p61) p16) (or p14 p14 p76) (or (not p61) (not p23) (not p63)) (or p79 p90 p36))
)
(check-sat)
(get-model)
